QBPP_HJ+_35_025_10_2
35 191 273
35 44 4 42 1 48 21 34 5 34 16 2 42 42 16 3 45 46 23 48 35 27 50 12 21 46 34 27 2 50 8 8 33 26 21
    0    0    0    0    1   80    0    0    0    0   74    0    0    0   47    0   36    0    0   35   53   40    0    0    0    0    0    4    0    0    0    0   34    0    0
    0    0    0    8    0    0   45    0    0    0   48   36    0    0   12    0    0    0    0    0    0    0    0    0    0    0    0    0    0   27   28   86    0    0    0
    0    0    0    0    0   42    0   57    0    0   46    0    0    0    0    0    0    0    0   84    0    0    0    0   95    0   97    0   96   17    0    0    0   53    0
    0    8    0    0    0    0    0    0   61    0    0   66    0    0    0    0    0   16   64    0    0    0    0    0    0    0    0    0    0    0    3    0    0    0   28
    1    0    0    0    0    0    0    0    0    0    0    0    0   16    0    0   46    0    0    0    0    0    0    0    0    0    0    0    7    0    0    0   41   54    0
   80    0   42    0    0    0   53    0    0    0    0    0    0   23   97    0   68    0    0    0    4    0    0    0    0    0    8    0    5    0    0    0    0    0    0
    0   45    0    0    0   53    0   19    0    0    0    0   66    0    0    0    0    0    0    0    0    0    0    0    0   12    0   12   59    0    0    0    0    0    0
    0    0   57    0    0    0   19    0    0    0    0    0    0   84  100   68    0    0    0    0    0   80    0    0    0   95   24    0    0   74    0    0   78    0   29
    0    0    0   61    0    0    0    0    0    0    0    5   22    0    0   37    0   34    0    0    0    0   70    0   11    0    0   58    0    0   46    0    0    0    0
    0    0    0    0    0    0    0    0    0    0    4    0    0    0  100   75    0    0    0   71   42   93   87    0    0    0    0    0    0    0    0   80    0    0    0
   74   48   46    0    0    0    0    0    0    4    0    0    0    5    0    7    0   13    0    0    0   32    0   41    0    0    0    4    0    0   49    0    0   76    0
    0   36    0   66    0    0    0    0    5    0    0    0    0    0    0    0    0   42    0   24    0    0    0   14    0    0    0    0   16    0    0    0    0   18    0
    0    0    0    0    0    0   66    0   22    0    0    0    0    0    0    0    0    0    0    0    0   55    0    0    6    0    0    0   12    0    0   27    0    0    0
    0    0    0    0   16   23    0   84    0    0    5    0    0    0   57   94   88    0    0   70    0   95   21    0   41    0    0   64    0    0    0    0   31   39   89
   47   12    0    0    0   97    0  100    0  100    0    0    0   57    0    0    0    0    0    0    0   42    0   55    0    0    0    0    0   64    0   27   92    0    0
    0    0    0    0    0    0    0   68   37   75    7    0    0   94    0    0    0    0    0    0    0    0    0    0    0   24   28    0   66    0    0   46    0    0   12
   36    0    0    0   46   68    0    0    0    0    0    0    0   88    0    0    0    0    0    0    0    0    0    0    0    0    2    0    0   24    0    0    0    0    0
    0    0    0   16    0    0    0    0   34    0   13   42    0    0    0    0    0    0   86    0    0    0    0    0    0   16    0    0   53   82    0    0    0    0   91
    0    0    0   64    0    0    0    0    0    0    0    0    0    0    0    0    0   86    0    0   25    0    0    0    0    0    0    0    0    0   53   76    0    0   36
   35    0   84    0    0    0    0    0    0   71    0   24    0   70    0    0    0    0    0    0    0   60    0    0   93   72    0    0   87    0    0    0    0   45   65
   53    0    0    0    0    4    0    0    0   42    0    0    0    0    0    0    0    0   25    0    0   62    0   53    0    1   16    0   62   29    0    0   93    0   28
   40    0    0    0    0    0    0   80    0   93   32    0   55   95   42    0    0    0    0   60   62    0    0   62    0    0    0   63    0    0   36    0    0    0    0
    0    0    0    0    0    0    0    0   70   87    0    0    0   21    0    0    0    0    0    0    0    0    0   73    0    0    0   94    0    0    0    0    0    0    0
    0    0    0    0    0    0    0    0    0    0   41   14    0    0   55    0    0    0    0    0   53   62   73    0    0    0   93    0    0   98    0    0    0    0   55
    0    0   95    0    0    0    0    0   11    0    0    0    6   41    0    0    0    0    0   93    0    0    0    0    0    0    0    0    0    0    0    0   31    0    0
    0    0    0    0    0    0   12   95    0    0    0    0    0    0    0   24    0   16    0   72    1    0    0    0    0    0    0    0   22    0    0    0    0    0   71
    0    0   97    0    0    8    0   24    0    0    0    0    0    0    0   28    2    0    0    0   16    0    0   93    0    0    0    0    4    0    0    0    0   65    0
    4    0    0    0    0    0   12    0   58    0    4    0    0   64    0    0    0    0    0    0    0   63   94    0    0    0    0    0    0   63    0    0    0    0    0
    0    0   96    0    7    5   59    0    0    0    0   16   12    0    0   66    0   53    0   87   62    0    0    0    0   22    4    0    0    0    0    0    5    0    0
    0   27   17    0    0    0    0   74    0    0    0    0    0    0   64    0   24   82    0    0   29    0    0   98    0    0    0   63    0    0    0    0    0    0    0
    0   28    0    3    0    0    0    0   46    0   49    0    0    0    0    0    0    0   53    0    0   36    0    0    0    0    0    0    0    0    0    0   95   98   78
    0   86    0    0    0    0    0    0    0   80    0    0   27    0   27   46    0    0   76    0    0    0    0    0    0    0    0    0    0    0    0    0    0    0    0
   34    0    0    0   41    0    0   78    0    0    0    0    0   31   92    0    0    0    0    0   93    0    0    0   31    0    0    0    5    0   95    0    0    0    0
    0    0   53    0   54    0    0    0    0    0   76   18    0   39    0    0    0    0    0   45    0    0    0    0    0    0   65    0    0    0   98    0    0    0   56
    0    0    0   28    0    0    0   29    0    0    0    0    0   89    0   12    0   91   36   65   28    0    0   55    0   71    0    0    0    0   78    0    0   56    0
